unsat
(:binary-propagations  84
 :conflicts            1
 :final-checks         1
 :max-generation       1
 :max-memory           26.93
 :memory               21.93
 :mk-bool-var          2303
 :mk-clause            635
 :mk-clause-binary     1270
 :num-allocs           62578898
 :num-checks           1
 :propagations         84
 :quant-instantiations 517
 :restarts             1
 :rlimit-count         397961
 :time                 0.08)
